c FILE /home/rafael/Documents/HappySet/MIHS/inputs/happygen/output/graph_d_regular_k3_p0.1_v50_20241127_082553.txt
c SOURCE This is a d-regular graph formed for the happy graph colouring problem.
c DESCRIPTION It was generated using the problem generator of Rhyd Lewis
c
c GRAPH STATS
c Seed                             = -1468032550
c Number of Nodes                  = 50
c Number of colours k              = 3
c Number of pre-assignments        = 5
c Degree of all vertices           = 6
c Density                          = 0.122449
c 
c The degrees of nodes 1 to 50, respectively, are as follows 
c [6, 6, 6, 6, 6, 6, 6, 6, 6, 6, 6, 6, 6, 6, 6, 6, 6, 6, 6, 6, 6, 6, 6, 6, 6, 6, 
c  6, 6, 6, 6, 6, 6, 6, 6, 6, 6, 6, 6, 6, 6, 6, 6, 6, 6, 6, 6, 6, 6, 6, 6] 
c  
p edge 50 150 3
e 1 6
e 1 19
e 1 41
e 1 46
e 1 47
e 1 49
e 2 8
e 2 10
e 2 24
e 2 41
e 2 45
e 2 50
e 3 5
e 3 7
e 3 10
e 3 26
e 3 37
e 3 38
e 4 6
e 4 25
e 4 26
e 4 38
e 4 46
e 4 47
e 5 11
e 5 21
e 5 37
e 5 38
e 5 50
e 6 18
e 6 32
e 6 34
e 6 44
e 7 9
e 7 11
e 7 16
e 7 35
e 7 41
e 8 20
e 8 29
e 8 30
e 8 32
e 8 46
e 9 16
e 9 23
e 9 37
e 9 40
e 9 42
e 10 11
e 10 27
e 10 30
e 10 35
e 11 12
e 11 17
e 11 18
e 12 15
e 12 27
e 12 42
e 12 45
e 12 46
e 13 14
e 13 19
e 13 31
e 13 34
e 13 40
e 13 42
e 14 24
e 14 28
e 14 29
e 14 42
e 14 44
e 15 24
e 15 33
e 15 35
e 15 48
e 15 49
e 16 20
e 16 21
e 16 36
e 16 44
e 17 22
e 17 26
e 17 28
e 17 36
e 17 40
e 18 29
e 18 30
e 18 43
e 18 47
e 19 25
e 19 28
e 19 30
e 19 44
e 20 23
e 20 31
e 20 49
e 20 50
e 21 22
e 21 23
e 21 29
e 21 33
e 22 23
e 22 27
e 22 37
e 22 38
e 23 48
e 23 49
e 24 30
e 24 35
e 24 40
e 25 29
e 25 41
e 25 45
e 25 48
e 26 32
e 26 33
e 26 44
e 27 42
e 27 44
e 27 50
e 28 32
e 28 45
e 28 47
e 29 45
e 30 37
e 31 34
e 31 36
e 31 39
e 31 46
e 32 34
e 32 35
e 33 36
e 33 42
e 33 43
e 34 48
e 34 50
e 35 43
e 36 43
e 36 47
e 37 46
e 38 39
e 38 49
e 39 40
e 39 41
e 39 43
e 39 50
e 40 43
e 41 47
e 45 48
e 48 49
n 1 1
n 7 2
n 16 2
n 38 3
n 46 1
